# Objective value = -1.2923698327896297e+01
X_1 6.7370850039734989e+01
X_2 2.1008449372930613e+01
X_3 -2.0240302761656794e+00
X_4 4.1813669011759620e+00
X_5 -1.2923698327896297e+01
alpha_1 -1
alpha_2 1
alpha_3 -1
alpha_4 -1
alpha_5 -1
alpha_6 -1
